NAME          g503inf 
ROWS
 N  OBJROW
 E  ROW1
 E  ROW2
 E  ROW3
 E  ROW4
 E  ROW5
 E  ROW6
 E  ROW7
 E  ROW8
 E  ROW9
 E  ROW10
 L  ROW11
 L  ROW12
 L  ROW13
 L  ROW14
 L  ROW15
 L  ROW16
 L  ROW17
 L  ROW18
 L  ROW19
 L  ROW20
 L  ROW21
 L  ROW22
 L  ROW23
 L  ROW24
 L  ROW25
 L  ROW26
 L  ROW27
 L  ROW28
 L  ROW29
 L  ROW30
 L  ROW31
 L  ROW32
 L  ROW33
 L  ROW34
 L  ROW35
 L  ROW36
 L  ROW37
 L  ROW38
 L  ROW39
 L  ROW40
 L  ROW41
COLUMNS
    X1        OBJROW    0.69           ROW1      1.          
    X1        ROW5      1.             ROW11     1.          
    X1        ROW35     0.69        
    X2        OBJROW    0.64           ROW1      1.          
    X2        ROW6      1.             ROW12     1.          
    X2        ROW35     0.64        
    X3        OBJROW    0.71           ROW1      1.          
    X3        ROW7      1.             ROW13     1.          
    X3        ROW35     0.71        
    X4        OBJROW    0.79           ROW1      1.          
    X4        ROW8      1.             ROW14     1.          
    X4        ROW35     0.79        
    X5        OBJROW    1.7            ROW1      1.          
    X5        ROW9      1.             ROW15     1.          
    X5        ROW35     1.7         
    X6        OBJROW    2.83           ROW1      1.          
    X6        ROW10     1.             ROW16     1.          
    X6        ROW35     2.83        
    X7        OBJROW    1.01           ROW2      1.          
    X7        ROW5      1.             ROW17     1.          
    X7        ROW35     1.01        
    X8        OBJROW    0.75           ROW2      1.          
    X8        ROW6      1.             ROW18     1.          
    X8        ROW36     0.75        
    X9        OBJROW    0.88           ROW2      1.          
    X9        ROW7      1.             ROW19     1.          
    X9        ROW36     0.88        
    X10       OBJROW    0.59           ROW2      1.          
    X10       ROW8      1.             ROW20     1.          
    X10       ROW36     0.59        
    X11       OBJROW    1.5            ROW2      1.          
    X11       ROW9      1.             ROW21     1.          
    X11       ROW36     1.5         
    X12       OBJROW    2.63           ROW2      1.          
    X12       ROW10     1.             ROW22     1.          
    X12       ROW36     2.63        
    X13       OBJROW    1.05           ROW3      1.          
    X13       ROW5      1.             ROW23     1.          
    X13       ROW36     1.05        
    X14       OBJROW    1.06           ROW3      1.          
    X14       ROW6      1.             ROW24     1.          
    X14       ROW36     1.06        
    X15       OBJROW    1.08           ROW3      1.          
    X15       ROW7      1.             ROW25     1.          
    X15       ROW37     1.08        
    X16       OBJROW    0.64           ROW3      1.          
    X16       ROW8      1.             ROW26     1.          
    X16       ROW37     0.64        
    X17       OBJROW    1.22           ROW3      1.          
    X17       ROW9      1.             ROW27     1.          
    X17       ROW37     1.22        
    X18       OBJROW    2.37           ROW3      1.          
    X18       ROW10     1.             ROW28     1.          
    X18       ROW37     2.37        
    X19       OBJROW    1.94           ROW4      1.          
    X19       ROW5      1.             ROW29     1.          
    X19       ROW37     1.94        
    X20       OBJROW    1.5            ROW4      1.          
    X20       ROW6      1.             ROW30     1.          
    X20       ROW37     1.5         
    X21       OBJROW    1.56           ROW4      1.          
    X21       ROW7      1.             ROW31     1.          
    X21       ROW37     1.56        
    X22       OBJROW    1.22           ROW4      1.          
    X22       ROW8      1.             ROW32     1.          
    X22       ROW38     1.22        
    X23       OBJROW    1.98           ROW4      1.          
    X23       ROW9      1.             ROW33     1.          
    X23       ROW38     1.98        
    X24       OBJROW    1.98           ROW4      1.          
    X24       ROW10     1.             ROW34     1.          
    X24       ROW38     1.98        
    X25       OBJROW    11.            ROW11      -35.       
    X25       ROW38     11.         
    X26       OBJROW    16.            ROW12      -30.       
    X26       ROW38     16.         
    X27       OBJROW    18.            ROW13      -25.       
    X27       ROW38     18.         
    X28       OBJROW    17.            ROW14      -15.       
    X28       ROW38     17.         
    X29       OBJROW    10.            ROW15      -5.        
    X29       ROW38     10.         
    X30       OBJROW    20.            ROW16      -5.        
    X30       ROW39     20.         
    X31       OBJROW    14.            ROW17      -35.       
    X31       ROW39     14.         
    X32       OBJROW    17.            ROW18      -30.       
    X32       ROW39     17.         
    X33       OBJROW    17.            ROW19      -25.       
    X33       ROW39     17.         
    X34       OBJROW    13.            ROW20      -15.       
    X34       ROW39     13.         
    X35       OBJROW    15.            ROW21      -5.        
    X35       ROW39     15.         
    X36       OBJROW    13.            ROW22      -5.        
    X36       ROW39     13.         
    X37       OBJROW    12.            ROW23      -20.       
    X37       ROW39     12.         
    X38       OBJROW    13.            ROW24      -20.       
    X38       ROW40     13.         
    X39       OBJROW    20.            ROW25      -20.       
    X39       ROW40     20.         
    X40       OBJROW    17.            ROW26      -15.       
    X40       ROW40     17.         
    X41       OBJROW    13.            ROW27      -5.        
    X41       ROW40     13.         
    X42       OBJROW    15.            ROW28      -5.        
    X42       ROW40     15.         
    X43       OBJROW    16.            ROW29      -15.       
    X43       ROW40     16.         
    X44       OBJROW    19.            ROW30      -15.       
    X44       ROW40     19.         
    X45       OBJROW    16.            ROW31      -15.       
    X45       ROW40     16.         
    X46       OBJROW    11.            ROW32      -15.       
    X46       ROW41     11.         
    X47       OBJROW    15.            ROW33      -5.        
    X47       ROW41     15.         
    X48       OBJROW    12.            ROW34      -5.        
    X48       ROW41     12.         
RHS
    RHS       ROW1      45.            ROW2      35.         
    RHS       ROW3      20.            ROW4      15.         
    RHS       ROW5      35.            ROW6      30.         
    RHS       ROW7      25.            ROW8      15.         
    RHS       ROW9      5.             ROW10     5.          
    RHS       ROW35     30.            ROW36     35.         
    RHS       ROW37     31.            ROW38     28.         
    RHS       ROW39     33.            ROW40     30.         
    RHS       ROW41     15.         
BOUNDS
 UP BOUND     X25       1.          
 UP BOUND     X26       1.          
 UP BOUND     X27       1.          
 UP BOUND     X28       1.          
 UP BOUND     X29       1.          
 UP BOUND     X30       1.          
 UP BOUND     X31       1.          
 UP BOUND     X32       1.          
 UP BOUND     X33       1.          
 UP BOUND     X34       1.          
 UP BOUND     X35       1.          
 UP BOUND     X36       1.          
 UP BOUND     X37       1.          
 UP BOUND     X38       1.          
 UP BOUND     X39       1.          
 UP BOUND     X40       1.          
 UP BOUND     X41       1.          
 UP BOUND     X42       1.          
 UP BOUND     X43       1.          
 UP BOUND     X44       1.          
 UP BOUND     X45       1.          
 UP BOUND     X46       1.          
 UP BOUND     X47       1.          
 UP BOUND     X48       1.          
ENDATA
